p cnf 1449
-20 -454
-21 -457
-22 -460
-23 -463
-24 -466
-25 -469
-26 -472
-27 -475
-28 -478
-29 -481
-30 -484
-31 -487
-32 -490
-33 -493
-34 -496
-35 -499
-36 -502
-37 -505
-38 -508
-39 509
-40 510
-41 511
-42 512
-43 513
-44 514
-45 515
-46 516
-47 517
-48 518
-49 519
-50 520
-51 521
-52 -21
-52 -22
21 22 52
-53 -23
-53 -24
23 24 53
-54 -25
-54 -26
25 26 54
-55 -27
-55 -28
27 28 55
-56 -29
-56 -30
29 30 56
-57 -31
-57 -32
31 32 57
-58 -33
-58 -34
33 34 58
-59 -35
-59 -36
35 36 59
-60 -37
-60 -38
37 38 60
-61 -39
-61 -40
39 40 61
-62 -41
-62 -42
41 42 62
-63 -43
-63 -44
43 44 63
-64 -45
-64 -46
45 46 64
-65 -47
-65 -48
47 48 65
-66 -49
-66 -50
49 50 66
-67 52
-67 53
-52 -53 67
-68 54
-68 55
-54 -55 68
-69 56
-69 57
-56 -57 69
-70 58
-70 59
-58 -59 70
-71 60
-71 61
-60 -61 71
-72 62
-72 63
-62 -63 72
-73 64
-73 65
-64 -65 73
-74 -51
-74 66
51 -66 74
-75 67
-75 68
-67 -68 75
-76 69
-76 70
-69 -70 76
-77 71
-77 72
-71 -72 77
-78 73
-78 74
-73 -74 78
-79 75
-79 76
-75 -76 79
-80 77
-80 78
-77 -78 80
-81 79
-81 80
-79 -80 81
-82 -20
-82 21
20 -21 82
-83 20
-83 -21
-20 21 83
-84 -82
-84 -83
82 83 84
-85 20
-85 21
-20 -21 85
-86 -20
-86 -84
20 84 86
-87 20
-87 84
-20 -84 87
-88 -86
-88 -87
86 87 88
-89 20
-89 -84
-20 84 89
-90 -85
-90 -89
85 89 90
-91 -21
-91 22
21 -22 91
-92 21
-92 -22
-21 22 92
-93 -91
-93 -92
91 92 93
-94 21
-94 22
-21 -22 94
-95 90
-95 -93
-90 93 95
-96 -90
-96 93
90 -93 96
-97 -95
-97 -96
95 96 97
-98 -90
-98 -93
90 93 98
-99 -94
-99 -98
94 98 99
-100 -22
-100 23
22 -23 100
-101 22
-101 -23
-22 23 101
-102 -100
-102 -101
100 101 102
-103 22
-103 23
-22 -23 103
-104 99
-104 -102
-99 102 104
-105 -99
-105 102
99 -102 105
-106 -104
-106 -105
104 105 106
-107 -99
-107 -102
99 102 107
-108 -103
-108 -107
103 107 108
-109 -23
-109 24
23 -24 109
-110 23
-110 -24
-23 24 110
-111 -109
-111 -110
109 110 111
-112 23
-112 24
-23 -24 112
-113 108
-113 -111
-108 111 113
-114 -108
-114 111
108 -111 114
-115 -113
-115 -114
113 114 115
-116 -108
-116 -111
108 111 116
-117 -112
-117 -116
112 116 117
-118 -24
-118 25
24 -25 118
-119 24
-119 -25
-24 25 119
-120 -118
-120 -119
118 119 120
-121 24
-121 25
-24 -25 121
-122 117
-122 -120
-117 120 122
-123 -117
-123 120
117 -120 123
-124 -122
-124 -123
122 123 124
-125 -117
-125 -120
117 120 125
-126 -121
-126 -125
121 125 126
-127 -25
-127 26
25 -26 127
-128 25
-128 -26
-25 26 128
-129 -127
-129 -128
127 128 129
-130 25
-130 26
-25 -26 130
-131 126
-131 -129
-126 129 131
-132 -126
-132 129
126 -129 132
-133 -131
-133 -132
131 132 133
-134 -126
-134 -129
126 129 134
-135 -130
-135 -134
130 134 135
-136 -26
-136 27
26 -27 136
-137 26
-137 -27
-26 27 137
-138 -136
-138 -137
136 137 138
-139 26
-139 27
-26 -27 139
-140 135
-140 -138
-135 138 140
-141 -135
-141 138
135 -138 141
-142 -140
-142 -141
140 141 142
-143 -135
-143 -138
135 138 143
-144 -139
-144 -143
139 143 144
-145 -27
-145 28
27 -28 145
-146 27
-146 -28
-27 28 146
-147 -145
-147 -146
145 146 147
-148 27
-148 28
-27 -28 148
-149 144
-149 -147
-144 147 149
-150 -144
-150 147
144 -147 150
-151 -149
-151 -150
149 150 151
-152 -144
-152 -147
144 147 152
-153 -148
-153 -152
148 152 153
-154 -28
-154 29
28 -29 154
-155 28
-155 -29
-28 29 155
-156 -154
-156 -155
154 155 156
-157 28
-157 29
-28 -29 157
-158 153
-158 -156
-153 156 158
-159 -153
-159 156
153 -156 159
-160 -158
-160 -159
158 159 160
-161 -153
-161 -156
153 156 161
-162 -157
-162 -161
157 161 162
-163 -29
-163 30
29 -30 163
-164 29
-164 -30
-29 30 164
-165 -163
-165 -164
163 164 165
-166 29
-166 30
-29 -30 166
-167 162
-167 -165
-162 165 167
-168 -162
-168 165
162 -165 168
-169 -167
-169 -168
167 168 169
-170 -162
-170 -165
162 165 170
-171 -166
-171 -170
166 170 171
-172 -30
-172 31
30 -31 172
-173 30
-173 -31
-30 31 173
-174 -172
-174 -173
172 173 174
-175 30
-175 31
-30 -31 175
-176 171
-176 -174
-171 174 176
-177 -171
-177 174
171 -174 177
-178 -176
-178 -177
176 177 178
-179 -171
-179 -174
171 174 179
-180 -175
-180 -179
175 179 180
-181 -31
-181 32
31 -32 181
-182 31
-182 -32
-31 32 182
-183 -181
-183 -182
181 182 183
-184 31
-184 32
-31 -32 184
-185 180
-185 -183
-180 183 185
-186 -180
-186 183
180 -183 186
-187 -185
-187 -186
185 186 187
-188 -180
-188 -183
180 183 188
-189 -184
-189 -188
184 188 189
-190 -32
-190 33
32 -33 190
-191 32
-191 -33
-32 33 191
-192 -190
-192 -191
190 191 192
-193 32
-193 33
-32 -33 193
-194 189
-194 -192
-189 192 194
-195 -189
-195 192
189 -192 195
-196 -194
-196 -195
194 195 196
-197 -189
-197 -192
189 192 197
-198 -193
-198 -197
193 197 198
-199 -33
-199 34
33 -34 199
-200 33
-200 -34
-33 34 200
-201 -199
-201 -200
199 200 201
-202 33
-202 34
-33 -34 202
-203 198
-203 -201
-198 201 203
-204 -198
-204 201
198 -201 204
-205 -203
-205 -204
203 204 205
-206 -198
-206 -201
198 201 206
-207 -202
-207 -206
202 206 207
-208 -34
-208 35
34 -35 208
-209 34
-209 -35
-34 35 209
-210 -208
-210 -209
208 209 210
-211 34
-211 35
-34 -35 211
-212 207
-212 -210
-207 210 212
-213 -207
-213 210
207 -210 213
-214 -212
-214 -213
212 213 214
-215 -207
-215 -210
207 210 215
-216 -211
-216 -215
211 215 216
-217 -35
-217 36
35 -36 217
-218 35
-218 -36
-35 36 218
-219 -217
-219 -218
217 218 219
-220 35
-220 36
-35 -36 220
-221 216
-221 -219
-216 219 221
-222 -216
-222 219
216 -219 222
-223 -221
-223 -222
221 222 223
-224 -216
-224 -219
216 219 224
-225 -220
-225 -224
220 224 225
-226 -36
-226 37
36 -37 226
-227 36
-227 -37
-36 37 227
-228 -226
-228 -227
226 227 228
-229 36
-229 37
-36 -37 229
-230 225
-230 -228
-225 228 230
-231 -225
-231 228
225 -228 231
-232 -230
-232 -231
230 231 232
-233 -225
-233 -228
225 228 233
-234 -229
-234 -233
229 233 234
-235 -37
-235 38
37 -38 235
-236 37
-236 -38
-37 38 236
-237 -235
-237 -236
235 236 237
-238 37
-238 38
-37 -38 238
-239 234
-239 -237
-234 237 239
-240 -234
-240 237
234 -237 240
-241 -239
-241 -240
239 240 241
-242 -234
-242 -237
234 237 242
-243 -238
-243 -242
238 242 243
-244 -38
-244 39
38 -39 244
-245 38
-245 -39
-38 39 245
-246 -244
-246 -245
244 245 246
-247 38
-247 39
-38 -39 247
-248 243
-248 -246
-243 246 248
-249 -243
-249 246
243 -246 249
-250 -248
-250 -249
248 249 250
-251 -243
-251 -246
243 246 251
-252 -247
-252 -251
247 251 252
-253 -39
-253 40
39 -40 253
-254 39
-254 -40
-39 40 254
-255 -253
-255 -254
253 254 255
-256 39
-256 40
-39 -40 256
-257 252
-257 -255
-252 255 257
-258 -252
-258 255
252 -255 258
-259 -257
-259 -258
257 258 259
-260 -252
-260 -255
252 255 260
-261 -256
-261 -260
256 260 261
-262 -40
-262 41
40 -41 262
-263 40
-263 -41
-40 41 263
-264 -262
-264 -263
262 263 264
-265 40
-265 41
-40 -41 265
-266 261
-266 -264
-261 264 266
-267 -261
-267 264
261 -264 267
-268 -266
-268 -267
266 267 268
-269 -261
-269 -264
261 264 269
-270 -265
-270 -269
265 269 270
-271 -41
-271 42
41 -42 271
-272 41
-272 -42
-41 42 272
-273 -271
-273 -272
271 272 273
-274 41
-274 42
-41 -42 274
-275 270
-275 -273
-270 273 275
-276 -270
-276 273
270 -273 276
-277 -275
-277 -276
275 276 277
-278 -270
-278 -273
270 273 278
-279 -274
-279 -278
274 278 279
-280 -42
-280 43
42 -43 280
-281 42
-281 -43
-42 43 281
-282 -280
-282 -281
280 281 282
-283 42
-283 43
-42 -43 283
-284 279
-284 -282
-279 282 284
-285 -279
-285 282
279 -282 285
-286 -284
-286 -285
284 285 286
-287 -279
-287 -282
279 282 287
-288 -283
-288 -287
283 287 288
-289 -43
-289 44
43 -44 289
-290 43
-290 -44
-43 44 290
-291 -289
-291 -290
289 290 291
-292 43
-292 44
-43 -44 292
-293 288
-293 -291
-288 291 293
-294 -288
-294 291
288 -291 294
-295 -293
-295 -294
293 294 295
-296 -288
-296 -291
288 291 296
-297 -292
-297 -296
292 296 297
-298 -44
-298 45
44 -45 298
-299 44
-299 -45
-44 45 299
-300 -298
-300 -299
298 299 300
-301 44
-301 45
-44 -45 301
-302 297
-302 -300
-297 300 302
-303 -297
-303 300
297 -300 303
-304 -302
-304 -303
302 303 304
-305 -297
-305 -300
297 300 305
-306 -301
-306 -305
301 305 306
-307 -45
-307 46
45 -46 307
-308 45
-308 -46
-45 46 308
-309 -307
-309 -308
307 308 309
-310 45
-310 46
-45 -46 310
-311 306
-311 -309
-306 309 311
-312 -306
-312 309
306 -309 312
-313 -311
-313 -312
311 312 313
-314 -306
-314 -309
306 309 314
-315 -310
-315 -314
310 314 315
-316 -46
-316 47
46 -47 316
-317 46
-317 -47
-46 47 317
-318 -316
-318 -317
316 317 318
-319 46
-319 47
-46 -47 319
-320 315
-320 -318
-315 318 320
-321 -315
-321 318
315 -318 321
-322 -320
-322 -321
320 321 322
-323 -315
-323 -318
315 318 323
-324 -319
-324 -323
319 323 324
-325 -47
-325 48
47 -48 325
-326 47
-326 -48
-47 48 326
-327 -325
-327 -326
325 326 327
-328 47
-328 48
-47 -48 328
-329 324
-329 -327
-324 327 329
-330 -324
-330 327
324 -327 330
-331 -329
-331 -330
329 330 331
-332 -324
-332 -327
324 327 332
-333 -328
-333 -332
328 332 333
-334 -48
-334 49
48 -49 334
-335 48
-335 -49
-48 49 335
-336 -334
-336 -335
334 335 336
-337 48
-337 49
-48 -49 337
-338 333
-338 -336
-333 336 338
-339 -333
-339 336
333 -336 339
-340 -338
-340 -339
338 339 340
-341 -333
-341 -336
333 336 341
-342 -337
-342 -341
337 341 342
-343 -49
-343 50
49 -50 343
-344 49
-344 -50
-49 50 344
-345 -343
-345 -344
343 344 345
-346 49
-346 50
-49 -50 346
-347 342
-347 -345
-342 345 347
-348 -342
-348 345
342 -345 348
-349 -347
-349 -348
347 348 349
-350 -342
-350 -345
342 345 350
-351 -346
-351 -350
346 350 351
-352 -50
-352 51
50 -51 352
-353 50
-353 -51
-50 51 353
-354 -352
-354 -353
352 353 354
-355 50
-355 51
-50 -51 355
-356 351
-356 -354
-351 354 356
-357 -351
-357 354
351 -354 357
-358 -356
-358 -357
356 357 358
-359 -351
-359 -354
351 354 359
-360 -355
-360 -359
355 359 360
-361 20
-361 -88
-20 88 361
-362 -20
-362 22
20 -22 362
-363 -361
-363 -362
361 362 363
-364 20
-364 -97
-20 97 364
-365 -20
-365 23
20 -23 365
-366 -364
-366 -365
364 365 366
-367 20
-367 -106
-20 106 367
-368 -20
-368 24
20 -24 368
-369 -367
-369 -368
367 368 369
-370 20
-370 -115
-20 115 370
-371 -20
-371 25
20 -25 371
-372 -370
-372 -371
370 371 372
-373 20
-373 -124
-20 124 373
-374 -20
-374 26
20 -26 374
-375 -373
-375 -374
373 374 375
-376 20
-376 -133
-20 133 376
-377 -20
-377 27
20 -27 377
-378 -376
-378 -377
376 377 378
-379 20
-379 -142
-20 142 379
-380 -20
-380 28
20 -28 380
-381 -379
-381 -380
379 380 381
-382 20
-382 -151
-20 151 382
-383 -20
-383 29
20 -29 383
-384 -382
-384 -383
382 383 384
-385 20
-385 -160
-20 160 385
-386 -20
-386 30
20 -30 386
-387 -385
-387 -386
385 386 387
-388 20
-388 -169
-20 169 388
-389 -20
-389 31
20 -31 389
-390 -388
-390 -389
388 389 390
-391 20
-391 -178
-20 178 391
-392 -20
-392 32
20 -32 392
-393 -391
-393 -392
391 392 393
-394 20
-394 -187
-20 187 394
-395 -20
-395 33
20 -33 395
-396 -394
-396 -395
394 395 396
-397 20
-397 -196
-20 196 397
-398 -20
-398 34
20 -34 398
-399 -397
-399 -398
397 398 399
-400 20
-400 -205
-20 205 400
-401 -20
-401 35
20 -35 401
-402 -400
-402 -401
400 401 402
-403 20
-403 -214
-20 214 403
-404 -20
-404 36
20 -36 404
-405 -403
-405 -404
403 404 405
-406 20
-406 -223
-20 223 406
-407 -20
-407 37
20 -37 407
-408 -406
-408 -407
406 407 408
-409 20
-409 -232
-20 232 409
-410 -20
-410 38
20 -38 410
-411 -409
-411 -410
409 410 411
-412 20
-412 -241
-20 241 412
-413 -20
-413 39
20 -39 413
-414 -412
-414 -413
412 413 414
-415 20
-415 -250
-20 250 415
-416 -20
-416 40
20 -40 416
-417 -415
-417 -416
415 416 417
-418 20
-418 -259
-20 259 418
-419 -20
-419 41
20 -41 419
-420 -418
-420 -419
418 419 420
-421 20
-421 -268
-20 268 421
-422 -20
-422 42
20 -42 422
-423 -421
-423 -422
421 422 423
-424 20
-424 -277
-20 277 424
-425 -20
-425 43
20 -43 425
-426 -424
-426 -425
424 425 426
-427 20
-427 -286
-20 286 427
-428 -20
-428 44
20 -44 428
-429 -427
-429 -428
427 428 429
-430 20
-430 -295
-20 295 430
-431 -20
-431 45
20 -45 431
-432 -430
-432 -431
430 431 432
-433 20
-433 -304
-20 304 433
-434 -20
-434 46
20 -46 434
-435 -433
-435 -434
433 434 435
-436 20
-436 -313
-20 313 436
-437 -20
-437 47
20 -47 437
-438 -436
-438 -437
436 437 438
-439 20
-439 -322
-20 322 439
-440 -20
-440 48
20 -48 440
-441 -439
-441 -440
439 440 441
-442 20
-442 -331
-20 331 442
-443 -20
-443 49
20 -49 443
-444 -442
-444 -443
442 443 444
-445 20
-445 -340
-20 340 445
-446 -20
-446 50
20 -50 446
-447 -445
-447 -446
445 446 447
-448 20
-448 -349
-20 349 448
-449 -20
-449 51
20 -51 449
-450 -448
-450 -449
448 449 450
-451 20
-451 -358
-20 358 451
-452 1
-452 81
-1 -81 452
-453 -81
-453 82
81 -82 453
-454 -452
-454 -453
452 453 454
-455 2
-455 81
-2 -81 455
-456 -81
-456 -363
81 363 456
-457 -455
-457 -456
455 456 457
-458 3
-458 81
-3 -81 458
-459 -81
-459 -366
81 366 459
-460 -458
-460 -459
458 459 460
-461 4
-461 81
-4 -81 461
-462 -81
-462 -369
81 369 462
-463 -461
-463 -462
461 462 463
-464 5
-464 81
-5 -81 464
-465 -81
-465 -372
81 372 465
-466 -464
-466 -465
464 465 466
-467 6
-467 81
-6 -81 467
-468 -81
-468 -375
81 375 468
-469 -467
-469 -468
467 468 469
-470 7
-470 81
-7 -81 470
-471 -81
-471 -378
81 378 471
-472 -470
-472 -471
470 471 472
-473 8
-473 81
-8 -81 473
-474 -81
-474 -381
81 381 474
-475 -473
-475 -474
473 474 475
-476 9
-476 81
-9 -81 476
-477 -81
-477 -384
81 384 477
-478 -476
-478 -477
476 477 478
-479 10
-479 81
-10 -81 479
-480 -81
-480 -387
81 387 480
-481 -479
-481 -480
479 480 481
-482 11
-482 81
-11 -81 482
-483 -81
-483 -390
81 390 483
-484 -482
-484 -483
482 483 484
-485 12
-485 81
-12 -81 485
-486 -81
-486 -393
81 393 486
-487 -485
-487 -486
485 486 487
-488 13
-488 81
-13 -81 488
-489 -81
-489 -396
81 396 489
-490 -488
-490 -489
488 489 490
-491 14
-491 81
-14 -81 491
-492 -81
-492 -399
81 399 492
-493 -491
-493 -492
491 492 493
-494 15
-494 81
-15 -81 494
-495 -81
-495 -402
81 402 495
-496 -494
-496 -495
494 495 496
-497 16
-497 81
-16 -81 497
-498 -81
-498 -405
81 405 498
-499 -497
-499 -498
497 498 499
-500 17
-500 81
-17 -81 500
-501 -81
-501 -408
81 408 501
-502 -500
-502 -501
500 501 502
-503 18
-503 81
-18 -81 503
-504 -81
-504 -411
81 411 504
-505 -503
-505 -504
503 504 505
-506 19
-506 81
-19 -81 506
-507 -81
-507 -414
81 414 507
-508 -506
-508 -507
506 507 508
-509 -81
-509 -417
81 417 509
-510 -81
-510 -420
81 420 510
-511 -81
-511 -423
81 423 511
-512 -81
-512 -426
81 426 512
-513 -81
-513 -429
81 429 513
-514 -81
-514 -432
81 432 514
-515 -81
-515 -435
81 435 515
-516 -81
-516 -438
81 438 516
-517 -81
-517 -441
81 441 517
-518 -81
-518 -444
81 444 518
-519 -81
-519 -447
81 447 519
-520 -81
-520 -450
81 450 520
-521 -81
-521 451
81 -451 521
-522 -51
-522 360
51 -360 522
-523 20
-523 -522
-20 522 523
523
